; benchmark generated from python API
(set-info :status unknown)
(declare-datatypes ((IntState 0)) (((Mk1 (val1 Int)) (Mk2 (val2 Int)))))
 (declare-fun c_main_~j~6 () Int)
(declare-fun c_main_~i~6 () Int)
(declare-fun c_main_~k~6 () Int)
(assert
 (let (($x152 (<= (* 2 c_main_~i~6) c_main_~j~6)))
 (let (($x16 (<= 2 c_main_~i~6)))
 (let (($x94 (<= 3 c_main_~i~6)))
 (let (($x110 (<= 1 c_main_~i~6)))
 (let (($x75 (exists ((v_nnf_28_st IntState) (val!50 Int) )(let (($x34 (and (<= c_main_~k~6 (+ (val2 v_nnf_28_st) 2)) (<= (* 2 (val2 v_nnf_28_st)) c_main_~j~6) (<= 3 (val2 v_nnf_28_st)))))
 (let (($x52 (not (= v_nnf_28_st (Mk1 val!50)))))
 (and $x52 $x34))))
 ))
 (let (($x114 (<= 0 c_main_~i~6)))
 (let (($x169 (exists ((v_nnf_26 Int) )(let (($x174 (<= (* 2 v_nnf_26) c_main_~j~6)))
 (let (($x13 (<= 3 v_nnf_26)))
 (and (<= c_main_~k~6 (+ v_nnf_26 1)) $x13 $x174))))
 ))
 (and (and $x114 $x110 $x94 $x16 $x169 $x152) (not (and $x114 $x75 $x110 $x94 $x16 $x152)))))))))))
(check-sat)
